PROBLEM NAME: eil51_n7
KNAPSACK DATA TYPE: uncorrelated, similar weights
DIMENSION: 7
NUMBER OF ITEMS: 6
CAPACITY OF KNAPSACK: 100093
MIN SPEED: 0.1
MAX SPEED: 1
RENTING RATIO: 0.52
EDGE_WEIGHT_TYPE: CEIL_2D
NODE_COORD_SECTION	(INDEX, X, Y):
1	42	57
2	7	38
3	30	48
4	45	35
5	5	6
6	56	37
7	30	40
ITEMS SECTION	(INDEX, PROFIT, WEIGHT, ASSIGNED NODE NUMBER):
1	795	100036	3
2	485	100093	7
3	421	100091	2
4	326	100005	5
5	322	100048	4
6	248	100015	6
